180
1000
472  
379  
106  
288  
664  
189  
572  
155  
464  
113  
540  
301  
139  
272  
226  
673  
172  
299  
506  
405  
624  
323  
145  
535  
428  
361  
168  
137  
432  
682  
222  
443  
116  
152  
211  
525  
341  
601  
585  
498  
334  
630  
455  
105  
356  
183  
202  
270  
414  
198  
671  
393  
578  
516  
264  
321  
407  
253  
178  
454  
77  
135  
203  
304  
425  
688  
16  
565  
444  
326  
661  
555  
9  
153  
310  
491  
646  
274  
420  
599  
346  
14  
400  
607  
532  
676  
439  
228  
364  
509  
650  
390  
118  
46  
328  
281  
170  
475  
38  
636  
517  
76  
275  
180  
453  
616  
579  
339  
100  
626  
395  
421  
292  
608  
470  
528  
165  
308  
202  
552  
489  
98  
423  
343  
680  
566  
13  
372  
267  
410  
499  
530  
88  
60  
43  
543  
357  
15 